40
     3    29    97    16    27    17    66   100    52    83    76    55    29    38    83     7    40    50    18    87    93    36    92    28    27    70    93    66     6    77    90    41    23    36    26    96     1    79    26    77
     9     6     1     3     4     4     8     8     7     3    10     9     9     7     9     5    10     7     2     5     9     8     6     1     2     3     4     4     4    10     2     6    10     4     8     1    10     5     6     3
   892   585   889   788   887     0   182   643   596   743     0   571   975   136     0  1015   225     0    40   694     0   330   728   874   197   113   729   404   399    28   763     0    48   574   666   912   344   431   815   702
